proyfinal/src/viki/013/andrea/andrea-localstore/experimentInOfficeAgust.take6/worker_9/8b8515b2-a789-476f-bc1d-c2caf13e608f.als.cnf.out
Reading from standard input... Use '--help' for help.
============================[ Problem Statistics ]=============================
|                                                                             |
|  Number of variables:         87638                                         |
|  Number of clauses:          161767                                         |
|  Parse time:                   0.03 s                                       |
|                                                                             |
============================[ Search Statistics ]==============================
| Conflicts |          ORIGINAL         |          LEARNT          | Progress |
|           |    Vars  Clauses Literals |    Limit  Clauses Lit/Cl |          |
===============================================================================
|       100 |   63255   108331   270678 |    39721      100     27 | 27.822 % |
|       250 |   63255   108331   270678 |    43693      250     37 | 27.822 % |
|       475 |   52601    77971   195854 |    48062      464     47 | 39.979 % |
|       812 |   52383    76541   192114 |    52869      754     40 | 40.228 % |
|      1318 |   52383    76541   192114 |    58156     1260     38 | 40.228 % |
|      2077 |   52281    76113   191099 |    63971     1994     47 | 40.344 % |
|      3216 |   52085    75477   189522 |    70368     3111     57 | 40.568 % |
|      4924 |   51764    74321   186724 |    77405     4685     50 | 40.934 % |
|      7486 |   51762    74318   186718 |    85146     7242     51 | 40.937 % |
|     11330 |   51599    73621   185080 |    93660    11053     51 | 41.123 % |
|     17096 |   51437    73000   183581 |   103026    16785     60 | 41.307 % |
===============================================================================
restarts              : 63
conflicts             : 18844          (8091 /sec)
decisions             : 60234          (0.00 % random) (25864 /sec)
propagations          : 24698556       (10605232 /sec)
conflict literals     : 1125306        (46.33 % deleted)
Memory used           : 28.88 MB
CPU time              : 2.3289 s

INDETERMINATE
